c [-tl=1800000, -p=4, instances/xcsp3/FrequencyAllocationXCSP3-m2-celar_50_7_10_5_0.800000_8.xml]
c 4 solvers in parallel
c parse instance...
c solve instance...
o 14084 
o 14000 
o 13720 
o 13692 
o 13664 
o 13608 
o 13384 
o 13300 
o 13244 
o 13160 
o 12992 
o 12964 
o 12880 
o 12768 
o 12740 
o 12684 
o 12656 
o 12628 
o 12572 
o 12544 
s SATISFIABLE
v <instantiation>
v 	<list>T[0] T[1] T[2] T[3] T[4] T[5] T[6] T[7] T[8] T[9] T[10] T[11] T[12] T[13] T[14] T[15] T[16] T[17] T[18] T[19] T[20] T[21] T[22] T[23] T[24] T[25] T[26] T[27] T[28] T[29] T[30] T[31] T[32] T[33] T[34] T[35] T[36] T[37] T[38] T[39] T[40] T[41] T[42] T[43] T[44] T[45] T[46] T[47] T[48] T[49] R[0] R[1] R[2] R[3] R[4] R[5] R[6] R[7] R[8] R[9] R[10] R[11] R[12] R[13] R[14] R[15] R[16] R[17] R[18] R[19] R[20] R[21] R[22] R[23] R[24] R[25] R[26] R[27] R[28] R[29] R[30] R[31] R[32] R[33] R[34] R[35] R[36] R[37] R[38] R[39] R[40] R[41] R[42] R[43] R[44] R[45] R[46] R[47] R[48] R[49] </list>
v 	<values>28 210 14 56 14 168 168 112 14 14 84 14 266 168 168 168 14 56 238 14 182 56 182 42 112 14 14 210 210 168 98 56 14 168 224 14 14 168 14 224 14 14 56 14 266 14 56 14 266 308 182 56 168 210 168 14 14 266 168 168 238 168 112 14 14 14 168 210 84 168 28 210 28 196 266 168 168 56 56 14 252 210 168 14 70 168 168 14 168 70 168 168 210 168 420 168 210 168 112 462 </values>
v </instantiation>
real 1800.76
user 7117.43
sys 74.03
